POSCAR file written by OVITO Basic 3.9.2
1
2.484999 0.000000 0.000000
0.000000 4.304000 0.000000
0.000000 0.000000 3.500000
B N
2 2 
Cartesian
0.000000 0.000000 0
1.242998 2.152008 0
0.000000 1.435012 0
1.242998 3.587005 0
