POSCAR file written by OVITO Basic 3.9.2
1
4.304000 0.000000 0.000000
0.000000 2.484999 0.000000
0.000000 0.000000 3.500000
B N
2 2 
Cartesian
0.000000 0.000000 0
2.152008 1.242998 0
1.435012 0.000000 0
3.587005 1.242998 0
