## ____________________________________________________________________
## *************|******** Define some parameters **********************
variable   Lx   equal 20   # units: A
variable   Ly   equal 40   # units: A
variable   Lz   equal 20   # units: A
variable   Ty   equal 1    # x-edge-type 1: zigzag, 2: armchair
variable   BL   equal 1.42 # units: A


## *************|************ Initialization **************************
units           metal 
boundary        p p p  
atom_style      atomic


## *************|************ Read Model Dat **************************
if   "${Ty} == 1" then &
  "jump SELF armchair" &
elif "${Ty} == 2" &
  "jump SELF zigzag" &
else &
  "print 'Errors input type number, please modify it to 1 or 2.'"


## ____________________________________________________________________
## *************|************ Read Model Dat **************************
label      zigzag         # x-edge-type

## *************|******** Define Model parameter **********************
variable   SQ3  equal sqrt(3)
variable   Nx   equal round(${Lx}/${BL}/sqrt(3))
variable   Ny   equal round(${Ly}/${BL}/3)
variable   Nz   equal round(${Lz}/${BL})

## *************|********* Define lattice point ***********************
lattice         custom ${BL} a1 ${SQ3} 0 0 a2 0 3 0 a3 0 0 ${Nz} &
                basis 0.0 0.00000000000000000000 0 &
                basis 0.5 0.16666666666666666666 0 &
                basis 0.5 0.50000000000000000000 0 &
                basis 0.0 0.66666666666666666666 0

region          Gra block  0 ${Nx} 0 ${Ny} 0 1 units lattice

## *************|********** Create model by lmp* **********************
create_box      1 Gra
create_atoms    1 region Gra
mass            1 12.011
write_data      gra-xzig.data

quit
## _____________^______________________________________________________


## ____________________________________________________________________
## *************|************ Read Model Dat **************************
label    armchair         # x-edge-type

## *************|******** Define Model parameter **********************
variable   SQ3  equal sqrt(3)
variable   Nx   equal round(${Lx}/${BL}/3)
variable   Ny   equal round(${Ly}/${BL}/sqrt(3))
variable   Nz   equal round(${Lz}/${BL})

## *************|********* Define lattice point ***********************
lattice         custom ${BL} a1 3 0 0 a2 0 ${SQ3} 0 a3 0 0 ${Nz} &
                basis 0.00000000000000000000 0.0 0 &
                basis 0.16666666666666666666 0.5 0 &
                basis 0.50000000000000000000 0.5 0 &
                basis 0.66666666666666666666 0.0 0

region          Gra block  0 ${Nx} 0 ${Ny} 0 1 units lattice

## *************|********** Create model by lmp* **********************
create_box      1 Gra
create_atoms    1 region Gra
mass            1 12.011
write_data      gra-xarm.data

quit
